
Gurobi 12.0.2 (win64) logging started Thu Jun  5 10:50:48 2025

Set parameter LogFile to value "C:\Ioana\_uni\honours\slp\algorithm\Main_files\results\others\prox_tubules\Task_029_Sample003_irr_gurobi.log"
Gurobi Optimizer version 12.0.2 build v12.0.2rc0 (win64 - Windows 11.0 (26100.2))

CPU model: Intel(R) Core(TM) Ultra 5 125H, instruction set [SSE2|AVX|AVX2]
Thread count: 14 physical cores, 18 logical processors, using up to 18 threads

Non-default parameters:
TimeLimit  2200

Optimize a model with 47658 rows, 34813 columns and 147860 nonzeros
Model fingerprint: 0x78af6cf2
Variable types: 17419 continuous, 17394 integer (17394 binary)
Coefficient statistics:
  Matrix range     [1e-04, 8e+04]
  Objective range  [2e-04, 3e+00]
  Bounds range     [1e+00, 1e+03]
  RHS range        [1e+00, 1e+00]
Presolve removed 31250 rows and 21853 columns
Presolve time: 0.31s
Presolved: 16408 rows, 12960 columns, 54590 nonzeros
Variable types: 6414 continuous, 6546 integer (6546 binary)

Root relaxation: objective 1.280511e+00, 1254 iterations, 0.08 seconds (0.13 work units)

    Nodes    |    Current Node    |     Objective Bounds      |     Work
 Expl Unexpl |  Obj  Depth IntInf | Incumbent    BestBd   Gap | It/Node Time

     0     0    1.28051    0    5          -    1.28051      -     -    0s
H    0     0                       2.3418558    1.28051  45.3%     -    0s
     0     0    1.33171    0    9    2.34186    1.33171  43.1%     -    0s
     0     0    1.38059    0    9    2.34186    1.38059  41.0%     -    0s
     0     0    1.38075    0   10    2.34186    1.38075  41.0%     -    0s
     0     0    1.40941    0    7    2.34186    1.40941  39.8%     -    0s
     0     0    1.48964    0   12    2.34186    1.48964  36.4%     -    1s
     0     0    2.15558    0    5    2.34186    2.15558  7.95%     -    1s
     0     0    2.15558    0    4    2.34186    2.15558  7.95%     -    1s
     0     0    2.15558    0    4    2.34186    2.15558  7.95%     -    1s
     0     0    2.15558    0    7    2.34186    2.15558  7.95%     -    1s
     0     0    2.26389    0    1    2.34186    2.26389  3.33%     -    1s

Cutting planes:
  Gomory: 1
  Flow cover: 1
  Network: 3

Explored 1 nodes (4617 simplex iterations) in 1.41 seconds (1.60 work units)
Thread count was 18 (of 18 available processors)

Solution count 1: 2.34186 

Optimal solution found (tolerance 1.00e-04)
Best objective 2.341855797608e+00, best bound 2.341855797608e+00, gap 0.0000%
